<number of tasks>
50

<cycle time>
1000

<order strength>
0.205


<task times>
1 344
2 413
3 498
4 248
5 485
6 219
7 612
8 493
9 520
10 483
11 515
12 362
13 551
14 432
15 292
16 641
17 568
18 305
19 325
20 578
21 494
22 505
23 443
24 371
25 494
26 525
27 507
28 568
29 608
30 550
31 269
32 450
33 386
34 476
35 506
36 431
37 479
38 447
39 626
40 315
41 419
42 610
43 372
44 353
45 736
46 525
47 586
48 429
49 588
50 691

<precedence relations>
1,31
2,20
3,7
5,9
5,10
6,8
7,11
7,12
9,13
9,15
10,14
11,16
12,17
13,19
14,18
14,19
14,20
15,21
16,27
17,29
18,26
18,35
19,28
19,30
21,22
21,23
21,24
21,25
22,31
23,31
24,31
25,31
26,32
27,35
28,33
29,34
30,36
30,37
31,38
31,39
31,40
31,41
31,42
32,44
33,45
34,43
35,46
39,47
41,49
41,50
43,47
44,48

<end>
